p cnf 38 112
a 24 1 0
e 2 3 4 5 6 7 8 9 10 11 12 13 14 15 16 17 18 19 20 21 22 23 25 26 27 28 29 30 31 32 33 34 35 36 37 38 0
-4 2 0
-4 3 0
-2 -3 4 0
5 -1 0
5 4 0
1 -4 -5 0
7 1 0
7 -6 0
-1 6 -7 0
5 -7 -8 0
-5 7 -8 0
5 7 8 0
-5 -7 8 0
-2 -11 -12 0
2 11 -12 0
-2 11 12 0
2 -11 12 0
10 12 -13 0
-10 -12 -13 0
10 -12 13 0
-10 12 13 0
-15 -12 0
-15 -11 0
12 11 15 0
16 -14 0
16 15 0
14 -15 -16 0
13 16 -17 0
-13 -16 -17 0
13 -16 17 0
-13 16 17 0
-18 17 0
-18 2 0
-17 -2 18 0
19 -9 0
19 -18 0
9 18 -19 0
-18 20 0
18 20 0
-21 19 0
-21 20 0
-19 -20 21 0
22 -6 0
22 4 0
6 -4 -22 0
-15 12 -23 0
15 -12 -23 0
-15 -12 23 0
15 12 23 0
-24 -3 0
-24 -23 0
3 23 24 0
-24 -15 -25 0
24 15 -25 0
-24 15 25 0
24 -15 25 0
-26 10 0
-26 25 0
-10 -25 26 0
-22 -26 -27 0
22 26 -27 0
-22 26 27 0
22 -26 27 0
28 -2 0
28 13 0
2 -13 -28 0
16 -28 -29 0
-16 28 -29 0
16 28 29 0
-16 -28 29 0
30 -1 0
30 -29 0
1 29 -30 0
27 -30 -31 0
-27 30 -31 0
27 30 31 0
-27 -30 31 0
21 31 -32 0
-21 -31 -32 0
21 -31 32 0
-21 31 32 0
-8 32 -33 0
8 -32 -33 0
-8 -32 33 0
8 32 33 0
-34 -10 0
-34 1 0
10 -1 34 0
25 -10 -35 0
-25 10 -35 0
25 10 35 0
-25 -10 35 0
36 12 0
36 35 0
-12 -35 -36 0
37 -34 0
37 36 0
34 -36 -37 0
38 33 0
38 37 0
-33 -37 -38 0
15 -22 29 31 0
-21 -11 38 19 -29 -24 -6 0
-16 -23 -2 12 0
32 -4 -19 -9 -7 -25 0
-24 32 -5 -22 -19 26 -10 12 0
10 21 20 -32 17 23 12 0
-5 33 -28 16 -12 9 0
38 -20 36 0
-18 23 -29 26 5 -14 0
-9 -10 -28 26 38 0
38 0
